c t mc
c file mc2022_track1_116.cnf
p cnf 90 546
-1 0
-46 0
4 0
-49 0
-45 0
90 0
1 46 11 56 0
-1 46 -11 56 0
1 -46 11 -56 0
-1 -46 -11 -56 0
1 46 4 49 0
-1 46 -4 49 0
1 -46 4 -49 0
-1 -46 -4 -49 0
1 46 28 73 0
-1 46 -28 73 0
1 -46 28 -73 0
-1 -46 -28 -73 0
1 46 45 90 0
-1 46 -45 90 0
1 -46 45 -90 0
-1 -46 -45 -90 0
1 46 26 71 0
-1 46 -26 71 0
1 -46 26 -71 0
-1 -46 -26 -71 0
1 46 42 87 0
-1 46 -42 87 0
1 -46 42 -87 0
-1 -46 -42 -87 0
2 47 18 63 0
-2 47 -18 63 0
2 -47 18 -63 0
-2 -47 -18 -63 0
2 47 23 68 0
-2 47 -23 68 0
2 -47 23 -68 0
-2 -47 -23 -68 0
2 47 44 89 0
-2 47 -44 89 0
2 -47 44 -89 0
-2 -47 -44 -89 0
2 47 34 79 0
-2 47 -34 79 0
2 -47 34 -79 0
-2 -47 -34 -79 0
2 47 8 53 0
-2 47 -8 53 0
2 -47 8 -53 0
-2 -47 -8 -53 0
2 47 17 62 0
-2 47 -17 62 0
2 -47 17 -62 0
-2 -47 -17 -62 0
3 48 41 86 0
-3 48 -41 86 0
3 -48 41 -86 0
-3 -48 -41 -86 0
3 48 8 53 0
-3 48 -8 53 0
3 -48 8 -53 0
-3 -48 -8 -53 0
3 48 36 81 0
-3 48 -36 81 0
3 -48 36 -81 0
-3 -48 -36 -81 0
3 48 22 67 0
-3 48 -22 67 0
3 -48 22 -67 0
-3 -48 -22 -67 0
3 48 31 76 0
-3 48 -31 76 0
3 -48 31 -76 0
-3 -48 -31 -76 0
3 48 5 50 0
-3 48 -5 50 0
3 -48 5 -50 0
-3 -48 -5 -50 0
4 49 45 90 0
-4 49 -45 90 0
4 -49 45 -90 0
-4 -49 -45 -90 0
4 49 44 89 0
-4 49 -44 89 0
4 -49 44 -89 0
-4 -49 -44 -89 0
4 49 33 78 0
-4 49 -33 78 0
4 -49 33 -78 0
-4 -49 -33 -78 0
4 49 43 88 0
-4 49 -43 88 0
4 -49 43 -88 0
-4 -49 -43 -88 0
4 49 18 63 0
-4 49 -18 63 0
4 -49 18 -63 0
-4 -49 -18 -63 0
5 50 25 70 0
-5 50 -25 70 0
5 -50 25 -70 0
-5 -50 -25 -70 0
5 50 32 77 0
-5 50 -32 77 0
5 -50 32 -77 0
-5 -50 -32 -77 0
5 50 38 83 0
-5 50 -38 83 0
5 -50 38 -83 0
-5 -50 -38 -83 0
5 50 29 74 0
-5 50 -29 74 0
5 -50 29 -74 0
-5 -50 -29 -74 0
5 50 28 73 0
-5 50 -28 73 0
5 -50 28 -73 0
-5 -50 -28 -73 0
6 51 10 55 0
-6 51 -10 55 0
6 -51 10 -55 0
-6 -51 -10 -55 0
6 51 15 60 0
-6 51 -15 60 0
6 -51 15 -60 0
-6 -51 -15 -60 0
6 51 35 80 0
-6 51 -35 80 0
6 -51 35 -80 0
-6 -51 -35 -80 0
6 51 9 54 0
-6 51 -9 54 0
6 -51 9 -54 0
-6 -51 -9 -54 0
6 51 27 72 0
-6 51 -27 72 0
6 -51 27 -72 0
-6 -51 -27 -72 0
6 51 22 67 0
-6 51 -22 67 0
6 -51 22 -67 0
-6 -51 -22 -67 0
7 52 12 57 0
-7 52 -12 57 0
7 -52 12 -57 0
-7 -52 -12 -57 0
7 52 40 85 0
-7 52 -40 85 0
7 -52 40 -85 0
-7 -52 -40 -85 0
7 52 42 87 0
-7 52 -42 87 0
7 -52 42 -87 0
-7 -52 -42 -87 0
7 52 34 79 0
-7 52 -34 79 0
7 -52 34 -79 0
-7 -52 -34 -79 0
7 52 19 64 0
-7 52 -19 64 0
7 -52 19 -64 0
-7 -52 -19 -64 0
7 52 38 83 0
-7 52 -38 83 0
7 -52 38 -83 0
-7 -52 -38 -83 0
8 53 29 74 0
-8 53 -29 74 0
8 -53 29 -74 0
-8 -53 -29 -74 0
8 53 11 56 0
-8 53 -11 56 0
8 -53 11 -56 0
-8 -53 -11 -56 0
8 53 14 59 0
-8 53 -14 59 0
8 -53 14 -59 0
-8 -53 -14 -59 0
8 53 44 89 0
-8 53 -44 89 0
8 -53 44 -89 0
-8 -53 -44 -89 0
9 54 45 90 0
-9 54 -45 90 0
9 -54 45 -90 0
-9 -54 -45 -90 0
9 54 15 60 0
-9 54 -15 60 0
9 -54 15 -60 0
-9 -54 -15 -60 0
9 54 40 85 0
-9 54 -40 85 0
9 -54 40 -85 0
-9 -54 -40 -85 0
9 54 24 69 0
-9 54 -24 69 0
9 -54 24 -69 0
-9 -54 -24 -69 0
9 54 21 66 0
-9 54 -21 66 0
9 -54 21 -66 0
-9 -54 -21 -66 0
10 55 16 61 0
-10 55 -16 61 0
10 -55 16 -61 0
-10 -55 -16 -61 0
10 55 23 68 0
-10 55 -23 68 0
10 -55 23 -68 0
-10 -55 -23 -68 0
10 55 32 77 0
-10 55 -32 77 0
10 -55 32 -77 0
-10 -55 -32 -77 0
10 55 14 59 0
-10 55 -14 59 0
10 -55 14 -59 0
-10 -55 -14 -59 0
10 55 31 76 0
-10 55 -31 76 0
10 -55 31 -76 0
-10 -55 -31 -76 0
11 56 15 60 0
-11 56 -15 60 0
11 -56 15 -60 0
-11 -56 -15 -60 0
11 56 24 69 0
-11 56 -24 69 0
11 -56 24 -69 0
-11 -56 -24 -69 0
11 56 13 58 0
-11 56 -13 58 0
11 -56 13 -58 0
-11 -56 -13 -58 0
11 56 20 65 0
-11 56 -20 65 0
11 -56 20 -65 0
-11 -56 -20 -65 0
12 57 37 82 0
-12 57 -37 82 0
12 -57 37 -82 0
-12 -57 -37 -82 0
12 57 45 90 0
-12 57 -45 90 0
12 -57 45 -90 0
-12 -57 -45 -90 0
12 57 45 90 0
-12 57 -45 90 0
12 -57 45 -90 0
-12 -57 -45 -90 0
12 57 29 74 0
-12 57 -29 74 0
12 -57 29 -74 0
-12 -57 -29 -74 0
12 57 13 58 0
-12 57 -13 58 0
12 -57 13 -58 0
-12 -57 -13 -58 0
13 58 26 71 0
-13 58 -26 71 0
13 -58 26 -71 0
-13 -58 -26 -71 0
13 58 17 62 0
-13 58 -17 62 0
13 -58 17 -62 0
-13 -58 -17 -62 0
13 58 43 88 0
-13 58 -43 88 0
13 -58 43 -88 0
-13 -58 -43 -88 0
13 58 26 71 0
-13 58 -26 71 0
13 -58 26 -71 0
-13 -58 -26 -71 0
14 59 34 79 0
-14 59 -34 79 0
14 -59 34 -79 0
-14 -59 -34 -79 0
14 59 34 79 0
-14 59 -34 79 0
14 -59 34 -79 0
-14 -59 -34 -79 0
14 59 40 85 0
-14 59 -40 85 0
14 -59 40 -85 0
-14 -59 -40 -85 0
14 59 18 63 0
-14 59 -18 63 0
14 -59 18 -63 0
-14 -59 -18 -63 0
15 60 25 70 0
-15 60 -25 70 0
15 -60 25 -70 0
-15 -60 -25 -70 0
15 60 19 64 0
-15 60 -19 64 0
15 -60 19 -64 0
-15 -60 -19 -64 0
15 60 45 90 0
-15 60 -45 90 0
15 -60 45 -90 0
-15 -60 -45 -90 0
16 61 21 66 0
-16 61 -21 66 0
16 -61 21 -66 0
-16 -61 -21 -66 0
16 61 42 87 0
-16 61 -42 87 0
16 -61 42 -87 0
-16 -61 -42 -87 0
16 61 43 88 0
-16 61 -43 88 0
16 -61 43 -88 0
-16 -61 -43 -88 0
16 61 37 82 0
-16 61 -37 82 0
16 -61 37 -82 0
-16 -61 -37 -82 0
16 61 17 62 0
-16 61 -17 62 0
16 -61 17 -62 0
-16 -61 -17 -62 0
17 62 20 65 0
-17 62 -20 65 0
17 -62 20 -65 0
-17 -62 -20 -65 0
17 62 23 68 0
-17 62 -23 68 0
17 -62 23 -68 0
-17 -62 -23 -68 0
17 62 37 82 0
-17 62 -37 82 0
17 -62 37 -82 0
-17 -62 -37 -82 0
18 63 20 65 0
-18 63 -20 65 0
18 -63 20 -65 0
-18 -63 -20 -65 0
18 63 44 89 0
-18 63 -44 89 0
18 -63 44 -89 0
-18 -63 -44 -89 0
18 63 31 76 0
-18 63 -31 76 0
18 -63 31 -76 0
-18 -63 -31 -76 0
19 64 43 88 0
-19 64 -43 88 0
19 -64 43 -88 0
-19 -64 -43 -88 0
19 64 28 73 0
-19 64 -28 73 0
19 -64 28 -73 0
-19 -64 -28 -73 0
19 64 39 84 0
-19 64 -39 84 0
19 -64 39 -84 0
-19 -64 -39 -84 0
19 64 32 77 0
-19 64 -32 77 0
19 -64 32 -77 0
-19 -64 -32 -77 0
20 65 29 74 0
-20 65 -29 74 0
20 -65 29 -74 0
-20 -65 -29 -74 0
20 65 38 83 0
-20 65 -38 83 0
20 -65 38 -83 0
-20 -65 -38 -83 0
20 65 35 80 0
-20 65 -35 80 0
20 -65 35 -80 0
-20 -65 -35 -80 0
21 66 22 67 0
-21 66 -22 67 0
21 -66 22 -67 0
-21 -66 -22 -67 0
21 66 27 72 0
-21 66 -27 72 0
21 -66 27 -72 0
-21 -66 -27 -72 0
21 66 30 75 0
-21 66 -30 75 0
21 -66 30 -75 0
-21 -66 -30 -75 0
21 66 42 87 0
-21 66 -42 87 0
21 -66 42 -87 0
-21 -66 -42 -87 0
22 67 36 81 0
-22 67 -36 81 0
22 -67 36 -81 0
-22 -67 -36 -81 0
22 67 39 84 0
-22 67 -39 84 0
22 -67 39 -84 0
-22 -67 -39 -84 0
22 67 25 70 0
-22 67 -25 70 0
22 -67 25 -70 0
-22 -67 -25 -70 0
23 68 41 86 0
-23 68 -41 86 0
23 -68 41 -86 0
-23 -68 -41 -86 0
23 68 41 86 0
-23 68 -41 86 0
23 -68 41 -86 0
-23 -68 -41 -86 0
23 68 39 84 0
-23 68 -39 84 0
23 -68 39 -84 0
-23 -68 -39 -84 0
24 69 30 75 0
-24 69 -30 75 0
24 -69 30 -75 0
-24 -69 -30 -75 0
24 69 26 71 0
-24 69 -26 71 0
24 -69 26 -71 0
-24 -69 -26 -71 0
24 69 27 72 0
-24 69 -27 72 0
24 -69 27 -72 0
-24 -69 -27 -72 0
24 69 38 83 0
-24 69 -38 83 0
24 -69 38 -83 0
-24 -69 -38 -83 0
25 70 33 78 0
-25 70 -33 78 0
25 -70 33 -78 0
-25 -70 -33 -78 0
25 70 30 75 0
-25 70 -30 75 0
25 -70 30 -75 0
-25 -70 -30 -75 0
25 70 36 81 0
-25 70 -36 81 0
25 -70 36 -81 0
-25 -70 -36 -81 0
26 71 40 85 0
-26 71 -40 85 0
26 -71 40 -85 0
-26 -71 -40 -85 0
26 71 32 77 0
-26 71 -32 77 0
26 -71 32 -77 0
-26 -71 -32 -77 0
27 72 37 82 0
-27 72 -37 82 0
27 -72 37 -82 0
-27 -72 -37 -82 0
27 72 34 79 0
-27 72 -34 79 0
27 -72 34 -79 0
-27 -72 -34 -79 0
27 72 33 78 0
-27 72 -33 78 0
27 -72 33 -78 0
-27 -72 -33 -78 0
28 73 32 77 0
-28 73 -32 77 0
28 -73 32 -77 0
-28 -73 -32 -77 0
28 73 44 89 0
-28 73 -44 89 0
28 -73 44 -89 0
-28 -73 -44 -89 0
28 73 40 85 0
-28 73 -40 85 0
28 -73 40 -85 0
-28 -73 -40 -85 0
29 74 35 80 0
-29 74 -35 80 0
29 -74 35 -80 0
-29 -74 -35 -80 0
29 74 33 78 0
-29 74 -33 78 0
29 -74 33 -78 0
-29 -74 -33 -78 0
30 75 38 83 0
-30 75 -38 83 0
30 -75 38 -83 0
-30 -75 -38 -83 0
30 75 43 88 0
-30 75 -43 88 0
30 -75 43 -88 0
-30 -75 -43 -88 0
30 75 31 76 0
-30 75 -31 76 0
30 -75 31 -76 0
-30 -75 -31 -76 0
31 76 42 87 0
-31 76 -42 87 0
31 -76 42 -87 0
-31 -76 -42 -87 0
31 76 41 86 0
-31 76 -41 86 0
31 -76 41 -86 0
-31 -76 -41 -86 0
32 77 35 80 0
-32 77 -35 80 0
32 -77 35 -80 0
-32 -77 -35 -80 0
33 78 37 82 0
-33 78 -37 82 0
33 -78 37 -82 0
-33 -78 -37 -82 0
33 78 39 84 0
-33 78 -39 84 0
33 -78 39 -84 0
-33 -78 -39 -84 0
34 79 40 85 0
-34 79 -40 85 0
34 -79 40 -85 0
-34 -79 -40 -85 0
35 80 36 81 0
-35 80 -36 81 0
35 -80 36 -81 0
-35 -80 -36 -81 0
35 80 36 81 0
-35 80 -36 81 0
35 -80 36 -81 0
-35 -80 -36 -81 0
36 81 37 82 0
-36 81 -37 82 0
36 -81 37 -82 0
-36 -81 -37 -82 0
38 83 41 86 0
-38 83 -41 86 0
38 -83 41 -86 0
-38 -83 -41 -86 0
39 84 43 88 0
-39 84 -43 88 0
39 -84 43 -88 0
-39 -84 -43 -88 0
39 84 41 86 0
-39 84 -41 86 0
39 -84 41 -86 0
-39 -84 -41 -86 0
42 87 44 89 0
-42 87 -44 89 0
42 -87 44 -89 0
-42 -87 -44 -89 0
